p cnf 28 66
a 17 14 0
e 1 2 3 4 5 6 7 8 9 10 11 12 13 15 16 18 19 20 21 22 23 24 25 26 27 28 0
-3 1 0
-3 -2 0
-1 2 3 0
-6 -5 0
-6 2 0
5 -2 6 0
4 -6 -7 0
-4 6 -7 0
4 6 7 0
-4 -6 7 0
7 8 -9 0
-7 -8 -9 0
7 -8 9 0
-7 8 9 0
10 -3 0
10 9 0
3 -9 -10 0
-13 11 0
-13 12 0
-11 -12 13 0
14 10 0
14 -13 0
-10 13 -14 0
16 2 0
16 15 0
-2 -15 -16 0
-18 -17 0
-18 7 0
17 -7 18 0
20 -1 0
20 19 0
1 -19 -20 0
21 -4 0
21 -6 0
4 6 -21 0
-20 21 -22 0
20 -21 -22 0
-20 -21 22 0
20 21 22 0
-23 -5 0
-23 -22 0
5 22 23 0
-24 23 0
-24 5 0
-23 -5 24 0
-25 -24 0
-25 -5 0
24 5 25 0
-18 -25 -26 0
18 25 -26 0
-18 25 26 0
18 -25 26 0
-27 -16 0
-27 -26 0
16 26 27 0
14 27 -28 0
-14 -27 -28 0
14 -27 28 0
-14 27 28 0
17 8 -24 6 0
-21 -2 -1 -25 22 0
19 22 3 8 -27 0
-27 -17 21 22 25 23 0
24 -14 -6 0
1 2 13 -9 -23 0
28 0
